p cnf 50 25
45 20 10 0
-32 -16 -34 0
-5 -15 33 0
-2 -15 -50 0
38 25 -17 0
-27 13 9 0
-38 1 42 0
33 34 -27 0
34 35 40 0
32 1 23 0
-13 -47 31 0
-49 10 -37 0
43 -25 -30 0
45 -8 11 0
40 -26 -25 0
-33 42 1 0
40 41 -35 0
7 20 -37 0
50 -37 -22 0
50 12 -24 0
42 8 24 0
-31 35 -42 0
-36 16 41 0
-27 17 6 0
-38 -7 13 0
